c Reduced graph for GEOM70a_1 generated by Cyril Grelier
p edge 63 420
e 1 2
e 1 6
e 1 14
e 1 15
e 1 16
e 1 23
e 1 31
e 1 33
e 1 40
e 1 41
e 1 48
e 1 49
e 1 50
e 1 53
e 1 56
e 1 57
e 1 60
e 2 6
e 2 11
e 2 13
e 2 15
e 2 16
e 2 20
e 2 21
e 2 32
e 2 40
e 2 41
e 2 44
e 2 48
e 2 50
e 2 51
e 2 53
e 3 7
e 3 8
e 3 17
e 3 18
e 3 19
e 3 24
e 3 28
e 3 30
e 3 34
e 3 38
e 3 39
e 3 42
e 3 45
e 3 52
e 3 55
e 3 61
e 4 12
e 4 16
e 4 27
e 4 29
e 4 50
e 4 51
e 4 54
e 4 57
e 4 59
e 4 62
e 5 21
e 5 34
e 5 42
e 5 44
e 5 58
e 6 14
e 6 15
e 6 16
e 6 20
e 6 23
e 6 31
e 6 33
e 6 37
e 6 40
e 6 41
e 6 46
e 6 48
e 6 49
e 6 50
e 6 53
e 6 56
e 6 60
e 7 8
e 7 17
e 7 18
e 7 19
e 7 24
e 7 28
e 7 30
e 7 34
e 7 38
e 7 39
e 7 42
e 7 45
e 7 52
e 7 55
e 7 61
e 8 17
e 8 18
e 8 19
e 8 24
e 8 28
e 8 30
e 8 34
e 8 38
e 8 39
e 8 42
e 8 45
e 8 52
e 8 55
e 8 61
e 9 10
e 9 12
e 9 22
e 9 26
e 9 27
e 9 35
e 9 36
e 9 43
e 9 47
e 9 51
e 9 54
e 9 59
e 9 62
e 9 63
e 10 18
e 10 22
e 10 25
e 10 26
e 10 27
e 10 32
e 10 35
e 10 36
e 10 43
e 10 54
e 10 63
e 11 13
e 11 15
e 11 16
e 11 21
e 11 32
e 11 40
e 11 42
e 11 44
e 11 50
e 11 53
e 11 58
e 12 26
e 12 27
e 12 29
e 12 43
e 12 47
e 12 51
e 12 54
e 12 59
e 12 62
e 13 15
e 13 21
e 13 30
e 13 32
e 13 40
e 13 42
e 13 44
e 13 58
e 14 23
e 14 31
e 14 41
e 14 48
e 14 49
e 14 53
e 14 56
e 14 60
e 15 16
e 15 20
e 15 21
e 15 31
e 15 33
e 15 37
e 15 40
e 15 41
e 15 44
e 15 46
e 15 48
e 15 49
e 15 50
e 15 53
e 16 20
e 16 31
e 16 40
e 16 41
e 16 48
e 16 49
e 16 50
e 16 51
e 16 53
e 16 57
e 17 18
e 17 19
e 17 24
e 17 28
e 17 30
e 17 34
e 17 38
e 17 39
e 17 45
e 17 52
e 17 55
e 17 61
e 18 22
e 18 25
e 18 28
e 18 35
e 18 36
e 18 38
e 18 39
e 18 52
e 18 61
e 18 63
e 19 24
e 19 28
e 19 30
e 19 34
e 19 38
e 19 39
e 19 42
e 19 45
e 19 52
e 19 55
e 20 31
e 20 33
e 20 37
e 20 40
e 20 41
e 20 46
e 20 48
e 20 49
e 20 53
e 21 30
e 21 32
e 21 40
e 21 42
e 21 44
e 21 58
e 22 25
e 22 26
e 22 35
e 22 36
e 22 43
e 22 54
e 22 63
e 23 31
e 23 41
e 23 48
e 23 49
e 23 56
e 23 60
e 24 28
e 24 30
e 24 34
e 24 38
e 24 39
e 24 42
e 24 45
e 24 52
e 24 55
e 25 28
e 25 32
e 25 35
e 25 36
e 25 38
e 25 39
e 25 43
e 25 61
e 25 63
e 26 27
e 26 43
e 26 47
e 26 54
e 26 59
e 26 62
e 27 29
e 27 43
e 27 47
e 27 50
e 27 51
e 27 54
e 27 57
e 27 59
e 27 62
e 28 38
e 28 39
e 28 52
e 28 55
e 28 61
e 29 51
e 29 57
e 29 59
e 29 62
e 30 32
e 30 34
e 30 38
e 30 39
e 30 42
e 30 44
e 30 45
e 30 55
e 30 58
e 31 33
e 31 41
e 31 46
e 31 48
e 31 49
e 31 53
e 31 56
e 31 60
e 32 35
e 32 36
e 32 38
e 32 39
e 32 42
e 32 44
e 32 50
e 33 37
e 33 40
e 33 41
e 33 46
e 33 48
e 33 49
e 33 53
e 33 56
e 33 60
e 34 38
e 34 42
e 34 45
e 34 55
e 35 36
e 35 38
e 35 39
e 35 43
e 35 54
e 35 63
e 36 38
e 36 39
e 36 43
e 36 54
e 36 63
e 37 40
e 37 44
e 37 46
e 37 49
e 37 58
e 38 39
e 38 42
e 38 45
e 38 52
e 38 55
e 38 61
e 39 42
e 39 45
e 39 52
e 39 55
e 39 61
e 39 63
e 40 41
e 40 44
e 40 46
e 40 48
e 40 49
e 40 50
e 40 53
e 40 58
e 41 48
e 41 49
e 41 50
e 41 53
e 41 56
e 41 57
e 41 60
e 42 44
e 42 45
e 42 58
e 43 47
e 43 54
e 43 62
e 43 63
e 44 58
e 45 55
e 46 49
e 46 60
e 47 54
e 47 59
e 47 62
e 48 49
e 48 50
e 48 53
e 48 56
e 48 57
e 48 60
e 49 53
e 49 56
e 49 60
e 50 51
e 50 53
e 50 57
e 50 59
e 51 54
e 51 57
e 51 59
e 51 62
e 52 55
e 52 61
e 53 56
e 53 57
e 53 60
e 54 59
e 54 62
e 54 63
e 55 61
e 56 60
e 57 59
e 59 62
e 61 63
